x = 10;
y = 10;
c = 76;
n = 23;

p = [87  97  58  44  100  48  26  13  10  80  96  73  22  45  13  89  12  45  15  33  30  51  79];
w = [1  9  1  7  9  8  7  7  4  4  1  10  7  9  2  8  5  7  9  9  7  8  7];
s = [8  10  10  4  2  10  3  7  1  7  6  10  6  9  9  5  7  10  3  3  3  6  5];
